x = 18;
y = 17;
c = 81;
n = 38;

p = [96  50  38  64  47  88  68  22  71  98  11  57  24  73  17  65  55  91  50  24  89  73  85  35  57  58  38  31  10  28  95  67  40  62  14  65  42  20];
w = [1  6  5  4  3  3  5  8  1  4  1  10  4  3  4  10  1  8  7  6  4  10  4  1  2  5  10  4  3  5  10  9  2  9  7  1  9  6];
s = [10  14  10  12  11  3  14  13  9  7  7  16  4  6  12  3  16  4  2  9  13  3  3  7  5  12  6  9  15  3  10  7  1  15  17  7  14  6];
